/*********************************************
 * OPL 12.6.0.0 Data
 * Author: Adrian Rodriguez Bazaga, Pau Rodriguez Esmerats
 * Creation Date: 06/12/2017 at 23:02:59
 *********************************************/

nNurses=179;
maxConsec=2;
maxPresence=7;
maxHours=5;
minHours=1;
hours=24;
demand= [30 32 43 49 32 43 49 35 36 22 4 5 8 9 8 6 4 6 4 4 26 40 14 37  ];
